(set-info :smt-lib-version 2.6)
(set-logic QF_S)
(set-info :source |
Generated by: Shaoke Cui
Generated on: 2025-04-10
Application: Using String Solvers to solve string matching problems
Target solver: Z3, Z3alpha, Z3-noodler
Benchmarks for string matching problem with wildcards, which needs to determine whether two strings containing two wildcards can match.
Use re.allchar and (re.* re.allchar) to represent wildcards.
Determine whether the two strings match by judging whether the result of re.inter is re.none.
|)
(set-info :license "https://creativecommons.org/licenses/by/4.0/")
(set-info :category "crafted")
(set-info :status unknown)
(assert (= re.none (re.inter  (re.++ (str.to_re "rhcivnpdokhl") (re.* re.allchar) (str.to_re "gxjzddcuxnbaevglrxdcjejdoevfjghx") (re.* re.allchar) re.allchar (str.to_re "mmkahxxsfvnetmnxwzsabihfprxkcjgiwrbqbhetybvlndjuxrdb") (re.* re.allchar) (str.to_re "dktkyxfzdkqsgtbmilbzzjjfvykpdvj") re.allchar (re.* re.allchar) (str.to_re "nilrjl") (re.* re.allchar) (str.to_re "wclyhjuabzzlluyiaesdilebfjozm") (re.* re.allchar) (str.to_re "xbrvjfntgznhlkivlqzmfwfofuwbblfodebhd") (re.* re.allchar) (str.to_re "vv") re.allchar (str.to_re "kpakknkhdaiorm") (re.* re.allchar) (str.to_re "dwgs") re.allchar (str.to_re "mapemnbmvrohppjpibvdnlbewsqximqh") re.allchar (str.to_re "deb") (re.* re.allchar) (str.to_re "by") (re.* re.allchar) (str.to_re "rlppccmqcybarzmikblsvvsgwutxyiyrbowqmclf") (re.* re.allchar) (str.to_re "xfktsjrn") (re.* re.allchar) (str.to_re "txyc") (re.* re.allchar) (str.to_re "bib") re.allchar (str.to_re "kkm") re.allchar (str.to_re "g") (re.* re.allchar) re.allchar (str.to_re "lywvxtx") re.allchar (str.to_re "btfdviffmxrc") (re.* re.allchar) (str.to_re "jowexaawdbmep") re.allchar (str.to_re "v") (re.* re.allchar) (str.to_re "cosruizxrpa") re.allchar (str.to_re "ymkuslvqevcnzrzwyzpzfojypmyfs") re.allchar (str.to_re "jxitqcxakmkghznczutjoinq") (re.* re.allchar) (str.to_re "ahvrjtfopkgrdbrwyvgtwnzojtzhpudyqorzfkbzxk") (re.* re.allchar) (str.to_re "lauoavqqzbiyvamjezvw") (re.* re.allchar) (str.to_re "lks") re.allchar (str.to_re "xrullefqfplddcngzhmvmllwbyrkwxapjfokyfaqvmzobkot") (re.* re.allchar) (str.to_re "ugqtzuxknkjhvmdmdkeqmajeich") re.allchar (str.to_re "cnlutjbkawvxanmyvalgvseozhel") re.allchar (str.to_re "vsl") (re.* re.allchar) (str.to_re "onyhsutwlujlitldxu") re.allchar re.allchar (str.to_re "ikrwh") (re.* re.allchar) (str.to_re "oxhsnyubmizirw") (re.* re.allchar) (re.* re.allchar) (str.to_re "gfrfcqzgspu") re.allchar (str.to_re "jtkxwaabvpyynuuybpesvtfseuhauo") re.allchar (str.to_re "qvdwenmojkanalbolrodcdyekexksqjscjxmekecxpeixjwzsh") (re.* re.allchar) (str.to_re "jbdgtr") re.allchar re.allchar (str.to_re "cbiqwqqapx") (re.* re.allchar) (str.to_re "trpkviygtyajyqdikkshurabcsnyeyxnpyoexlmpncbqfjyjzzsvuwiuslovpmcwychssgydzjzvhmtknsiolfbrxejtc") (re.* re.allchar) (str.to_re "fnyfywchiplvvpmhwaqx") (re.* re.allchar) (str.to_re "gvbovhfvhzzvfrxy") (re.* re.allchar) (str.to_re "ucwjqehktnvqwxfdliqighnrcckgtllklankz") re.allchar (str.to_re "uowjhmvxdqis") re.allchar (str.to_re "lu") re.allchar (str.to_re "billgjipybjvebpai") re.allchar re.allchar re.allchar (str.to_re "powtibmhosysuhymtgkcyosza") (re.* re.allchar) (str.to_re "qeayjuvvfmg") re.allchar (str.to_re "ruswmnolrgbgzxdgaatmvrammmfx") (re.* re.allchar) (str.to_re "lqyxazqxkruo") re.allchar (str.to_re "payzavjwoci") re.allchar (str.to_re "gblg") (re.* re.allchar) (str.to_re "p") (re.* re.allchar) (str.to_re "omopecemntorqs") re.allchar (str.to_re "buvxf") (re.* re.allchar) (str.to_re "herbkgnh") re.allchar (str.to_re "lgpjwxgfqgcjyytbfhgkirlgsfdawnybpfdrlxwxputggvynxnzabgnjgnqdytc") re.allchar (str.to_re "imudahezvshfhzg") (re.* re.allchar) (str.to_re "jhsodxlntdfguoqpjnfzqzafnlhzljxupzkekqc") re.allchar (str.to_re "vdfntdonugidphnfmnifmcyfzunbhybrbgrxl") re.allchar (str.to_re "wp") re.allchar (str.to_re "kaekslaaptfkuozxcnl") (re.* re.allchar) (str.to_re "bpqsjvz") re.allchar (str.to_re "kozdvpuo") re.allchar (str.to_re "pbhcvlxrbszho") (re.* re.allchar) (str.to_re "welqcvkvbxsgorqmwamqerqifmpifyybxu") re.allchar (str.to_re "iplrvmgb") (re.* re.allchar) (str.to_re "vsmzbaakc") re.allchar (str.to_re "sazete") (re.* re.allchar) (str.to_re "ohgxmhxsykhslrgqb") (re.* re.allchar) re.allchar (str.to_re "zb") (re.* re.allchar) (str.to_re "hkzamjarhu") re.allchar (str.to_re "runwzkahvyavtwhdlpiwpjtebyz") re.allchar (re.* re.allchar) (str.to_re "p") re.allchar (str.to_re "qmmupxbl") re.allchar (str.to_re "gysx") re.allchar (str.to_re "dsnnlzcz") (re.* re.allchar) (str.to_re "irhmkuddggkpvlnweoshawnsvzowdouc") re.allchar (str.to_re "z") (re.* re.allchar) (re.* re.allchar) (str.to_re "klitvbwtgmvx") re.allchar (str.to_re "epltdfiquonrrzguldff") re.allchar (str.to_re "duuzmgnrgcpjck") (re.* re.allchar) (str.to_re "pfhcpeloipiz") re.allchar (str.to_re "ak") re.allchar re.allchar (re.* re.allchar) (str.to_re "onqirlbcjw") re.allchar (str.to_re "ljfdpecmocbafjdloh") (re.* re.allchar) (re.* re.allchar) (str.to_re "whcjogquwwm") re.allchar (re.* re.allchar) (str.to_re "tyqs") (re.* re.allchar) (str.to_re "iifwqk") re.allchar (str.to_re "ylcmchomxkxubhsq") (re.* re.allchar) (str.to_re "qcyyu") re.allchar (str.to_re "opqccowsbaxgrvqqgihkk") (re.* re.allchar) (str.to_re "wdommo") (re.* re.allchar) (str.to_re "bjzrpgfwuzaf") (re.* re.allchar) (str.to_re "nfmaqqycprad") (re.* re.allchar) (re.* re.allchar) (str.to_re "boytgtmdtkselnttlxvxxibywtkbppdfvwqcwtlcigtkzsxhrvvxvwcvad") re.allchar (str.to_re "rnr") re.allchar (str.to_re "gdjcwiwopckhrejue") re.allchar (str.to_re "tjx") re.allchar (str.to_re "ikexrawr") (re.* re.allchar) (str.to_re "lokf") (re.* re.allchar) (str.to_re "xya") re.allchar (str.to_re "mmmutaikpwhbjdipqjqlifrsslkrs") re.allchar (str.to_re "rizmdgsghnunribkcnwvclhurv") re.allchar (str.to_re "ook") (re.* re.allchar) (str.to_re "rdguovjhfreughfzfkxhedijqqronnliyyjegxwnrjxk") re.allchar (str.to_re "r") (re.* re.allchar) (str.to_re "nyylzskvanlweizjgstgye") re.allchar re.allchar (str.to_re "bulayhmo") (re.* re.allchar) (str.to_re "wlvaccdiqbtooa") re.allchar (str.to_re "smcmus") re.allchar (str.to_re "xmkawdhmin") (re.* re.allchar) (str.to_re "nqcdzhbdoz") (re.* re.allchar) (str.to_re "twalavqcoiydqxipohyacklmpbemxnqasvrhtqoyfc") (re.* re.allchar) (str.to_re "zqtvmucrzdfxswoqmmvpfkqcvffrh") re.allchar (str.to_re "wvbrmxrntgchqeqtvphjeybky") (re.* re.allchar) (str.to_re "dtjmozswxekeovzjyulrxtlxbrlpdzmtcwpoepe") (re.* re.allchar) (str.to_re "rsogrliqtwnzccygp") re.allchar (str.to_re "avztiwrp") (re.* re.allchar) (str.to_re "vinkstnjhdpmcvqqcuaojbdueululmirqmf") (re.* re.allchar) (str.to_re "sho") re.allchar (str.to_re "ihkvmizikljxfh") (re.* re.allchar) (str.to_re "gxeqrwck") re.allchar (str.to_re "z") (re.* re.allchar) (str.to_re "tqxmh") re.allchar re.allchar re.allchar (str.to_re "aeynvxijzpvdjlevbkppyajiweukabuhnbyubnvnt") (re.* re.allchar) (str.to_re "e") (re.* re.allchar) (str.to_re "erocgaulte") re.allchar (str.to_re "smojahglkaaeftorizkhazpwylsy") (re.* re.allchar) (str.to_re "vwp") (re.* re.allchar) (str.to_re "hhqyvpuzryqkem") re.allchar re.allchar (str.to_re "lgunyaxludno") (re.* re.allchar) (str.to_re "ejytmebzmbvnbwlzvzj") re.allchar (str.to_re "bjcjs") (re.* re.allchar) (str.to_re "nud") re.allchar (str.to_re "dqfhyzzk") re.allchar (str.to_re "grnoyzbhecsexsesqd") re.allchar (str.to_re "psmnvwhxrdzimivhxlqiofmutfvtsecxopmaqjau") (re.* re.allchar) (str.to_re "n") re.allchar (str.to_re "ejljyjtijgimqsntwsskzuletdxytqrfcbmwvpluohl") (re.* re.allchar) (str.to_re "sdy") re.allchar (str.to_re "zbyydvsvbqu") re.allchar re.allchar (str.to_re "q") re.allchar (str.to_re "yrocrmzdhrincgneupjpk") re.allchar (str.to_re "bfsvwfdmphomiyrnfwncfv") (re.* re.allchar) (str.to_re "vtvqcxp") re.allchar (str.to_re "biacafgbnoqiojluseo") (re.* re.allchar) (re.* re.allchar) (str.to_re "akvy") re.allchar (str.to_re "kruiruircewvffc") (re.* re.allchar) (str.to_re "eazfilrjqnwa") re.allchar (str.to_re "esaglwfk") re.allchar (str.to_re "zcozvrl") (re.* re.allchar) (str.to_re "sevospe") (re.* re.allchar) (str.to_re "xgffroude") re.allchar (str.to_re "z") (re.* re.allchar) (str.to_re "ifohzeyieuarflomfisxaaghvjo") (re.* re.allchar) (str.to_re "jhjuxdqopwtqghreaiwdfzjfvdnafkw") re.allchar re.allchar (str.to_re "cdcphhpgwoqpzhsuvgixxpu") re.allchar (str.to_re "fqajosywbfujafaofnmblvdubdactuidxgtwtsjp") (re.* re.allchar) (str.to_re "yxgjt") re.allchar (str.to_re "kmhiuqzoongnzravxajtbguhhcqhqwcsllzguluh") (re.* re.allchar) (str.to_re "horhk") (re.* re.allchar) (str.to_re "wwzxptr") (re.* re.allchar) (str.to_re "lufwknyrpqfyicaciujvjpfwt") (re.* re.allchar) (str.to_re "coastbprgkbofpumtjoomb") re.allchar (str.to_re "yqnrokjomfhjstydhutpjxargxqlqxunvedhxhekwpo") re.allchar (str.to_re "xcibsgippvhpym") re.allchar (str.to_re "ilvuilbwynoyqpdlezjahxspbqahtjwc") re.allchar (str.to_re "rozpucyvsxbxdtjoxnijvxifef") re.allchar (str.to_re "drisroseualtthxpxwwwjiwnpkeajvnzsfimbduvf") re.allchar (str.to_re "hfgdcahoyxxwrduvguvctganavattizh") re.allchar (str.to_re "qexcfrstcygy") (re.* re.allchar) (str.to_re "pglkfsvwkxfs") re.allchar (re.* re.allchar) (str.to_re "qewynar") (re.* re.allchar) (str.to_re "hemldmreitrfyzfalhgypu") (re.* re.allchar) (str.to_re "kaiafzme") re.allchar (str.to_re "feeulrshfxwedyfsgluwrycwaqxbdtlgablkbhkodbldtqayrckhxuqltlap") re.allchar (str.to_re "knw") re.allchar (str.to_re "wb") re.allchar (str.to_re "rnxaxrobpwkk") (re.* re.allchar) (str.to_re "pijqggzfvjeitdvdkpqpv") re.allchar (str.to_re "oe") (re.* re.allchar) (str.to_re "cmivvkpipfcyprdgpxfdteydobe") re.allchar (re.* re.allchar) (str.to_re "kdbs") re.allchar (str.to_re "mdqvleke") re.allchar (str.to_re "yqjmaahbl") re.allchar (str.to_re "kwadloazkp") re.allchar (str.to_re "vwopodpehfbezavdwgtautq") re.allchar (str.to_re "csunbvvlleoz") re.allchar (str.to_re "zucpkfrhzoftx") re.allchar (str.to_re "ybldsfyl") (re.* re.allchar) (str.to_re "swgzkjrcqfpodaxlwbhhdf") re.allchar (str.to_re "ljn") (re.* re.allchar) (str.to_re "uzhtnvjsylkcgjbngrszrpqgfaavgeombwbkex") (re.* re.allchar) (str.to_re "ern") re.allchar (str.to_re "hdjutyadd") (re.* re.allchar) re.allchar (str.to_re "egfq") (re.* re.allchar) (str.to_re "beejuexjozozlagaqesbwtfwnpsygmiyin") re.allchar (str.to_re "bzf") (re.* re.allchar) (str.to_re "eylufpfuhajzdq") (re.* re.allchar) (str.to_re "yocnmto") (re.* re.allchar) (str.to_re "evdlizvkcx") re.allchar (str.to_re "kyzbyzpeuowflscwahbqwq") (re.* re.allchar) (str.to_re "ptidycfbhcwewue") (re.* re.allchar) (str.to_re "loyhrgnriktzlatbabmo") (re.* re.allchar) (str.to_re "gzfsjdabvfazchmm") (re.* re.allchar) (str.to_re "swasvmseokboyrrsrwdivqkjygatuqefdsfmtfiwqplpjlocvmfmw") (re.* re.allchar) (str.to_re "uvpodoz") re.allchar (str.to_re "qvvpjagorvkambfveksrkudrudtyvgajakcvafgakxmifmtekslrggdrl") re.allchar (str.to_re "jhpvjpqp") re.allchar re.allchar (str.to_re "nzlgddnhaluprkcgchuipkfpdqxuhhtbxfsnvxswvsrb") re.allchar re.allchar (str.to_re "vwmtvorpttuju") (re.* re.allchar) (str.to_re "vdwoxdcoyedowwkb") (re.* re.allchar) (str.to_re "drd") re.allchar (str.to_re "ipkicp") re.allchar (str.to_re "clgthejyxgyvthomex") re.allchar (str.to_re "omqlsuk") re.allchar (str.to_re "jacjkwjfkvxe") re.allchar (str.to_re "yzcevsjweccdlidhyuxcvtpnuqs") (re.* re.allchar) (str.to_re "gtaoodibgspxccrpbljgzaavunlgwxjtr") re.allchar (str.to_re "erudzy") re.allchar (str.to_re "cccbgcszlf") re.allchar (str.to_re "mzsnmmf") (re.* re.allchar) (str.to_re "vxnh") re.allchar (str.to_re "imvmwsapninmznhmkpo") re.allchar (str.to_re "pqtwjrjtkrwbzpl") re.allchar re.allchar (str.to_re "ivepoqerwvx") (re.* re.allchar) (str.to_re "hfsrzc") re.allchar (str.to_re "qikjuatkjs") (re.* re.allchar) (str.to_re "nuftcyfazqfoidtxaizw") (re.* re.allchar) (str.to_re "fv") (re.* re.allchar) re.allchar (str.to_re "bhwkcchcxokovkpamrehgnyka") re.allchar (str.to_re "vsbomzgynisrumhhfowjryinxollglyblwetvbtsppcg") (re.* re.allchar) (str.to_re "r") re.allchar (str.to_re "nuhejpcylmdkfgqreuk") (re.* re.allchar) (str.to_re "csvsygwzdtkexyvizdmre") re.allchar (str.to_re "va") re.allchar (str.to_re "nevzjtctnokeu") re.allchar (str.to_re "zsfoehhlbpqcuqhfokcljm") (re.* re.allchar) (str.to_re "fmavzeyy") (re.* re.allchar) (str.to_re "akdxr") (re.* re.allchar) (str.to_re "boisxgwqawdeyukn") (re.* re.allchar) (str.to_re "oszgagabqwbwew") re.allchar (str.to_re "ohsuwijyddj") re.allchar (str.to_re "uanjkjshorvcljoahnfvnalza") re.allchar (str.to_re "b") (re.* re.allchar) (str.to_re "shjqswncislsegklcudboedoujtvruu") (re.* re.allchar) (str.to_re "zqmeshywlxupkygoeolpzottyjldrjixjs") re.allchar (str.to_re "ghimdigziquizkp") (re.* re.allchar) (str.to_re "wiivcug") re.allchar (str.to_re "bruigkwxbk") re.allchar (str.to_re "dihllbqjvsfkdxvlraqfdkgmxmiibgculejnwpyhef") (re.* re.allchar) (str.to_re "hcwvugplzc") (re.* re.allchar) (str.to_re "s") re.allchar (str.to_re "dhjglrvkxe") re.allchar (str.to_re "bvqbhm") re.allchar (str.to_re "yk") (re.* re.allchar) (str.to_re "djqmtartoxaoqbftwwacneoju") (re.* re.allchar) (str.to_re "ohsmcegmdbfa") (re.* re.allchar) (str.to_re "b") re.allchar (str.to_re "qszbsxwhz") re.allchar (str.to_re "gmzbnhofmzitrwvscklj") re.allchar (str.to_re "enchirlbywj") re.allchar (str.to_re "gse") re.allchar (re.* re.allchar) (str.to_re "raamkog") (re.* re.allchar) (str.to_re "ackouwajdpelfdgzecopmxttqzjhuhidze") (re.* re.allchar) (str.to_re "rjxtsijdjrlmsolqkcyvkmvhylvbww") )   (re.++ (str.to_re "pwuxxptvs") re.allchar (str.to_re "ayircf") (re.* re.allchar) (str.to_re "ngimcfdksedcw") re.allchar (str.to_re "c") (re.* re.allchar) (str.to_re "xdyumnnlslbtisrwiqkysrvujowzjmng") re.allchar (str.to_re "sqlebjkvdmnvvvsuooytrepzucsjkwleplmzb") re.allchar (str.to_re "ockssbckmzrrlpevrqkw") (re.* re.allchar) (str.to_re "affpoqpovk") (re.* re.allchar) (str.to_re "lhnmvr") (re.* re.allchar) (str.to_re "boxpsqtrmdglqk") (re.* re.allchar) (str.to_re "ghrohtkxtgmhqlqiajtgjnu") re.allchar (str.to_re "uimvqbubupm") re.allchar (str.to_re "ld") (re.* re.allchar) (str.to_re "flebtgevrkzhm") re.allchar (str.to_re "kxnvkzgov") re.allchar (str.to_re "rdluxhac") (re.* re.allchar) (str.to_re "owfi") re.allchar (str.to_re "yozcchrj") (re.* re.allchar) (str.to_re "j") re.allchar (str.to_re "tpvoztniwzdiatgdfbukip") (re.* re.allchar) (str.to_re "xa") (re.* re.allchar) (str.to_re "qzqqadgmupj") (re.* re.allchar) (str.to_re "remrhxbukbivteuta") re.allchar (str.to_re "x") re.allchar (str.to_re "wiwfjucivwnpgup") (re.* re.allchar) (str.to_re "ym") (re.* re.allchar) (str.to_re "vekpzxh") re.allchar (str.to_re "gwnu") (re.* re.allchar) (str.to_re "gkfatusmorqyscehdqnhfymkm") re.allchar (re.* re.allchar) (str.to_re "wjnbrtbhnozniawjfvdspqcyufl") (re.* re.allchar) (str.to_re "hflstwgxuupjzrqvkvexwyokrbixhxouvejowogpjhjgvvhmarafpkua") (re.* re.allchar) (str.to_re "hkuv") (re.* re.allchar) (str.to_re "zvgoenylfjtmedi") re.allchar (str.to_re "vqnxfmcy") (re.* re.allchar) (str.to_re "ez") re.allchar (str.to_re "cncyiowlknsx") re.allchar (str.to_re "endxrj") re.allchar (str.to_re "cxwfptrneyvpkrapdvpspzdivcnrbbd") re.allchar (str.to_re "hqsycfvsfikjjnyhgi") re.allchar (str.to_re "ehsnmzuiokettleuhkkhupaewynmjvaxlifnchctet") re.allchar (str.to_re "aymkhhlrdnbklvhkxakrc") re.allchar (str.to_re "crcbok") (re.* re.allchar) (str.to_re "gmpgintdulqmshopnmc") (re.* re.allchar) (str.to_re "ap") re.allchar (str.to_re "rgrfye") (re.* re.allchar) (str.to_re "cgcjtthanz") re.allchar (str.to_re "ss") (re.* re.allchar) (str.to_re "bzsdvzv") re.allchar (str.to_re "glmpczumlzmimwquq") re.allchar re.allchar (str.to_re "h") (re.* re.allchar) (str.to_re "i") re.allchar (str.to_re "blzbkfkvxooppyqmgpdrmi") (re.* re.allchar) (str.to_re "phyeqezwyjpait") re.allchar (str.to_re "tkimyjlvacgyjvazcflkxfa") re.allchar (str.to_re "wzulhsfbadqxddu") re.allchar (str.to_re "nutylefkzcnugmn") re.allchar (str.to_re "wab") re.allchar (str.to_re "sduzcvjogcvaudnqvhyp") re.allchar (str.to_re "paiwqcekx") (re.* re.allchar) (str.to_re "sslzemgquikueqhlwb") (re.* re.allchar) (str.to_re "jcefucipasihnybstw") re.allchar (str.to_re "qhtuiq") re.allchar (str.to_re "vr") re.allchar (str.to_re "jqh") (re.* re.allchar) (str.to_re "abiaksrwyeflcgqsvcwgtbp") (re.* re.allchar) (str.to_re "wuxbcenhdhrf") (re.* re.allchar) (str.to_re "pqaih") (re.* re.allchar) (str.to_re "nio") (re.* re.allchar) (re.* re.allchar) (str.to_re "rftevenbqnyu") (re.* re.allchar) (str.to_re "h") (re.* re.allchar) (str.to_re "dsofxtvvqb") re.allchar (str.to_re "zmllitlloyh") (re.* re.allchar) (str.to_re "dilzzyoo") (re.* re.allchar) (str.to_re "qnlralidxxrevicjojmjwq") re.allchar (str.to_re "bxizqjcehecgviemfysm") re.allchar (str.to_re "oqugjrwtemrrygtb") re.allchar (str.to_re "epiisdmkoy") (re.* re.allchar) (str.to_re "nctsrdxqjjbak") (re.* re.allchar) (str.to_re "sklfj") re.allchar (re.* re.allchar) (str.to_re "eewhqrecjycmsattswa") re.allchar (str.to_re "mtslxkoyxu") re.allchar (str.to_re "zufuuaa") (re.* re.allchar) (str.to_re "uazf") (re.* re.allchar) (str.to_re "kmjvg") re.allchar re.allchar (str.to_re "nskq") re.allchar (str.to_re "ighnsowlpvfugi") re.allchar (re.* re.allchar) (str.to_re "ejqma") re.allchar (re.* re.allchar) (str.to_re "jbehtphufgreeuyylqzwshaf") (re.* re.allchar) re.allchar (str.to_re "jslignvswoycifxhuy") re.allchar (str.to_re "ymcabkieplh") re.allchar (str.to_re "tjavnvqy") (re.* re.allchar) (str.to_re "yvhfqrjjztnrybzocmqjifsopwexbfswnyveqrkutlltbtjuxfymolxsqooscubddxnjsjspyjbs") (re.* re.allchar) (str.to_re "noyb") re.allchar (str.to_re "tg") re.allchar (str.to_re "bmeqzjmoqptegacsoytrfijwkjekqoyyublfv") re.allchar re.allchar (str.to_re "nvrgsyfqanlimn") re.allchar (str.to_re "okn") (re.* re.allchar) (str.to_re "cixfwrhffwbrhkffgyxmt") (re.* re.allchar) (str.to_re "jroozlwmxxvacgbrksplfnxvd") re.allchar (str.to_re "aytiwewjgtvtfvcwtnqmvucpztostkp") re.allchar (str.to_re "ctutor") (re.* re.allchar) (str.to_re "fsdxazavquvqyajpcqhrpawopgfwndlawu") (re.* re.allchar) (str.to_re "tvawyvqophvcnejoyt") re.allchar re.allchar (str.to_re "t") (re.* re.allchar) (str.to_re "nfmrqbfqibbhwhevn") (re.* re.allchar) (str.to_re "ovnijbrbsxfjvkxgobq") re.allchar (str.to_re "utdhyfrjdtyrejbeznpdsjiq") re.allchar re.allchar re.allchar (str.to_re "jjb") re.allchar (str.to_re "hh") (re.* re.allchar) (str.to_re "miktkhtyhosniy") (re.* re.allchar) (str.to_re "dx") (re.* re.allchar) (str.to_re "zyjpjrlnfshgb") (re.* re.allchar) re.allchar (str.to_re "ddzn") (re.* re.allchar) (str.to_re "j") re.allchar (str.to_re "adfukifvhorgurfotdti") re.allchar (str.to_re "oahlx") (re.* re.allchar) (str.to_re "pfp") re.allchar (str.to_re "uvnbjjtwqfrnlcpe") (re.* re.allchar) (str.to_re "olgwyyxuytafjbxzohkmsmdzvl") (re.* re.allchar) (str.to_re "uz") re.allchar (str.to_re "b") re.allchar (str.to_re "hnkjlpgucyeaqvpmobhzanmsdfvpjxpihtnxnsaxxhssluvrntabyrfumud") re.allchar (str.to_re "rqyyf") re.allchar re.allchar (str.to_re "ngascq") re.allchar (str.to_re "zplqmsthsn") (re.* re.allchar) (str.to_re "fskzsxzmhpsqpbmadzznuzyhcbbnkco") (re.* re.allchar) (str.to_re "fjtqqnvntdxoanl") (re.* re.allchar) (str.to_re "pkrpbhwucpsmpnggcucobycvzy") re.allchar (str.to_re "ul") (re.* re.allchar) (str.to_re "ilzofacfejikskwrofqvsx") re.allchar (str.to_re "gimrcbozaaobvzsbitaeqhkcwgoaxtmehunyyjefzhrttkbvxbrhmv") (re.* re.allchar) (str.to_re "jfnqmrwrrvrnd") (re.* re.allchar) (str.to_re "if") (re.* re.allchar) (str.to_re "gadsgeoizyq") re.allchar (str.to_re "cviyyqh") (re.* re.allchar) re.allchar (str.to_re "gujqwnsbswrewtfymmeiarkxzgvobxiflysowdxeqidta") (re.* re.allchar) (str.to_re "qqbhhuiihkzo") re.allchar (str.to_re "wttxwil") re.allchar (str.to_re "zo") re.allchar (str.to_re "j") (re.* re.allchar) (str.to_re "nldpasdwqcecovtwezxytwouk") (re.* re.allchar) (str.to_re "uqe") re.allchar (str.to_re "dlfgehdubmnvjm") (re.* re.allchar) (str.to_re "oklsmheaehwmzzwqryttnnuwxauzqikhwufehr") re.allchar (str.to_re "nkfpqdhnvlaaabk") (re.* re.allchar) (str.to_re "pqqmxl") (re.* re.allchar) (str.to_re "tcmcokvngxossoweoipbucdfazxjo") (re.* re.allchar) (str.to_re "itq") re.allchar (str.to_re "snpq") (re.* re.allchar) (str.to_re "gyhhch") re.allchar (str.to_re "nhfpujvewjxuf") (re.* re.allchar) (str.to_re "enflrh") (re.* re.allchar) (str.to_re "lpryvlpyxsbwoeyydohs") (re.* re.allchar) (str.to_re "oexdgqwxgoivohky") re.allchar (str.to_re "tdz") (re.* re.allchar) (str.to_re "tmnygqmnbqpj") (re.* re.allchar) (str.to_re "uyyje") (re.* re.allchar) (str.to_re "yh") (re.* re.allchar) (str.to_re "kampucovfvl") re.allchar (str.to_re "wlwiehofdhjvcqaijs") re.allchar (str.to_re "bibhrsebgnppqsloatdszinerdndycccbjdgqttnpantowzpcrqfkbyundigidhk") re.allchar (str.to_re "od") (re.* re.allchar) (str.to_re "yivjlfafnsjercbrkutnehhpwmqimaozhmtevnwlv") re.allchar re.allchar (str.to_re "vqdevouqk") (re.* re.allchar) (str.to_re "bwaozsaoshmgeiqcinassmohxdatnqnenrvz") re.allchar (str.to_re "p") re.allchar re.allchar (str.to_re "wzhvjbrrhxwcvffnnwymhnshhsgm") re.allchar (str.to_re "iga") re.allchar (str.to_re "oasio") re.allchar (str.to_re "aboasqdjiiidq") re.allchar (str.to_re "syphhrmrtkdmplfn") re.allchar (str.to_re "impadlcso") re.allchar re.allchar (str.to_re "odgogalrjfvfopgvpyun") re.allchar (str.to_re "jcbkhtpemqqex") (re.* re.allchar) (str.to_re "inwischyiexevvdauvmfbhx") re.allchar (str.to_re "dr") (re.* re.allchar) (str.to_re "fzbzuw") (re.* re.allchar) (str.to_re "sgkgnqr") re.allchar (str.to_re "mioccthzfwisbaijhmyx") re.allchar (str.to_re "kwz") re.allchar (str.to_re "oo") re.allchar (str.to_re "gky") re.allchar re.allchar (str.to_re "isaynqzxmjqubtychasryfvgxohemohzaz") (re.* re.allchar) (str.to_re "hywwncpxshvaigvy") (re.* re.allchar) (str.to_re "xzjhizawziaktnvfm") re.allchar (str.to_re "bufqhnmijdauhqfzwqibsmndktsulv") re.allchar (str.to_re "gvundhhurjtwdvirc") re.allchar (str.to_re "giio") (re.* re.allchar) (str.to_re "dgzdcsjpsciezmqdtktirdnmiotcmcclt") (re.* re.allchar) (str.to_re "lxswvraswy") (re.* re.allchar) (str.to_re "hpq") (re.* re.allchar) (str.to_re "vr") re.allchar (str.to_re "qvuy") re.allchar (str.to_re "uqxrsujjegkjrguvlrqdgcawt") re.allchar (str.to_re "yhbeoedgwgirczcd") (re.* re.allchar) (str.to_re "fou") (re.* re.allchar) (str.to_re "xirpvowizabbrmusn") (re.* re.allchar) (str.to_re "kiqtvjsqwbvyjdwvszevsqbwgonoamuaiukupzzxtjqngyonlgvben") re.allchar (str.to_re "iycinxxaoyepyihghnvtuc") re.allchar (str.to_re "gayqoimrovsq") (re.* re.allchar) (str.to_re "qsfcxyowjnueutorvcav") re.allchar (str.to_re "amejutjzzdosiixqif") (re.* re.allchar) (str.to_re "sdzqq") (re.* re.allchar) (str.to_re "xe") re.allchar (str.to_re "jhmhkagrojjoenxjopoqhdxpeab") re.allchar (str.to_re "kbmizfzjrpsiiujgejzzorwncfziiovohkaqzitezaetpy") (re.* re.allchar) (str.to_re "bbkzbtukusdzqocooiareftrlzeirce") (re.* re.allchar) (str.to_re "cptrgvonjmpwmshcljviwhklcobvauvhqngxpriywgujocpcldiof") (re.* re.allchar) (str.to_re "spxmuj") (re.* re.allchar) (str.to_re "mctysnseccywptluduhumpbnfygbvfplsqfszwnrdjrtybtzjchsvekpqbfxwxq") (re.* re.allchar) (str.to_re "jbjdqkztlcyqzejvtduyfwsywjraf") re.allchar (str.to_re "lsvub") (re.* re.allchar) (str.to_re "pphxeunuv") (re.* re.allchar) (str.to_re "vgygcqqggkuewkclyvyiaf") (re.* re.allchar) (str.to_re "gxgcjwlififvjdknmyiovtxlalyelshbkvmcjq") re.allchar (str.to_re "zrkjtudh") re.allchar (str.to_re "tmmvfccycujyqkbbzuxn") (re.* re.allchar) (str.to_re "iksagsfq") (re.* re.allchar) (str.to_re "cyxggolcynym") (re.* re.allchar) (str.to_re "cnfesqckvjmtczgjgbizpwb") re.allchar (str.to_re "yxfvfnobc") re.allchar (str.to_re "uldsgeyshahvewxgotsx") re.allchar (str.to_re "otvdblkuccczmpevv") (re.* re.allchar) (str.to_re "boiqmih") (re.* re.allchar) (str.to_re "kbm") (re.* re.allchar) (str.to_re "mhqjzqmsfmqawnppb") (re.* re.allchar) (str.to_re "ymh") (re.* re.allchar) (str.to_re "mdaokhnihx") (re.* re.allchar) (str.to_re "zwukjevrjl") re.allchar (str.to_re "zrqhh") (re.* re.allchar) (str.to_re "biuo") re.allchar (str.to_re "adndrrauspnyxszeyeylkgrexixac") re.allchar (str.to_re "cljpmtdkvxtkwqfnzwqht") (re.* re.allchar) (str.to_re "jemku") (re.* re.allchar) (str.to_re "cfhogppf") re.allchar (str.to_re "bcwts") (re.* re.allchar) (str.to_re "rcer") re.allchar (str.to_re "kyzfvspcrsxajcyaaosncynvbdalcntgofjpmpurwmkvqqmichezylyla") re.allchar re.allchar (str.to_re "t") (re.* re.allchar) (str.to_re "jyjyjkathnkxxcl") (re.* re.allchar) (str.to_re "phjjgtyjog") (re.* re.allchar) (str.to_re "cmqavblogiyormfsikhm") re.allchar (str.to_re "uhpjzbfdmxk") (re.* re.allchar) (str.to_re "wauevjgzpha") re.allchar (str.to_re "ma") (re.* re.allchar) (str.to_re "tyyqbvgbnlshf") re.allchar (str.to_re "obwsyqv") re.allchar (str.to_re "zsaplrbxo") (re.* re.allchar) (str.to_re "rlbhzxibicb") re.allchar (str.to_re "yfniulrheqhncxa") re.allchar (str.to_re "xky") (re.* re.allchar) (str.to_re "dwogqhegng") (re.* re.allchar) (str.to_re "ocqhbrkq") re.allchar (str.to_re "kfablctmcdxlgkktf") re.allchar (str.to_re "i") re.allchar (str.to_re "bwbpkqpgznnvxwb") (re.* re.allchar) (str.to_re "nwkeu") (re.* re.allchar) (str.to_re "uusosfxayhqgynonyitftbd") re.allchar (str.to_re "isxjjmmcoufcalbactyidnqpkchisdnkyyenzni") re.allchar (str.to_re "xcdypzzd") re.allchar (str.to_re "xh") re.allchar (str.to_re "nrfgikhs") re.allchar (str.to_re "zwg") re.allchar (str.to_re "lagssyy") (re.* re.allchar) (str.to_re "av") re.allchar (str.to_re "momrg") re.allchar (str.to_re "ckdokdnrsfztytxkw") re.allchar (str.to_re "sepfuwxfnvvok") (re.* re.allchar) (str.to_re "tqiymwpachblxhgoluxrgyndw") re.allchar (str.to_re "qcypwgbpr") (re.* re.allchar) (str.to_re "avrenxsn") (re.* re.allchar) (str.to_re "xau") re.allchar (str.to_re "tpaqtczunhwa") (re.* re.allchar) (str.to_re "ps") (re.* re.allchar) (str.to_re "wirzhavwemdpjhoagnqyfhorccb") (re.* re.allchar) (str.to_re "xklaubshcoe") re.allchar (str.to_re "potplfekoslqivnqkuclyxouhjikarjgbkqjola") (re.* re.allchar) (str.to_re "losrklngarintgib") re.allchar (str.to_re "imyipkzlzndstzncbheowxfuadzohcudoxhgrwoldhvzqtdvfq") re.allchar (str.to_re "lramxcntggfmfjvqobkzjr") re.allchar (str.to_re "axyqtexzcojkcgypjexffj") re.allchar (str.to_re "lirgcjvhdteklod") re.allchar (str.to_re "bkfesasedbvpjtvhbu") re.allchar (str.to_re "dfmbit") )  )))
(check-sat)
(exit)
